(set-info :smt-lib-version 2.6)
(set-logic AUFBVFPDTNIRA)
(set-info :source |
Generated by: AdaCore
Generated on: 2020-03-06
Generator: SPARK
Application: Program verification for Ada
Target solver: Z3
|)
(set-info :license "https://creativecommons.org/licenses/by/4.0/")
(set-info :category "industrial")
(set-info :status unknown)
;;; generated by SMT-LIB2 driver
;;; SMT-LIB2 driver: bit-vectors, common part
;;; SMT-LIB2: integer arithmetic
(declare-sort string 0)

(declare-datatypes () ((tuple0 (Tuple0))))
(declare-sort us_private 0)

(declare-fun private__bool_eq (us_private us_private) Bool)

(declare-const us_null_ext__ us_private)

(declare-sort us_type_of_heap 0)

(declare-datatypes ()
((us_type_of_heap__ref
 (us_type_of_heap__refqtmk (us_type_of_heap__content us_type_of_heap)))))
(declare-sort us_image 0)

(declare-datatypes () ((int__ref (int__refqtmk (int__content Int)))))
(declare-datatypes () ((bool__ref (bool__refqtmk (bool__content Bool)))))
(declare-datatypes ()
((us_fixed__ref (us_fixed__refqtmk (us_fixed__content Int)))))
(declare-datatypes () ((real__ref (real__refqtmk (real__content Real)))))
(declare-datatypes ()
((us_private__ref (us_private__refqtmk (us_private__content us_private)))))
(define-fun int__ref___projection ((a int__ref)) Int (int__content a))

(define-fun us_fixed__ref___projection ((a us_fixed__ref)) Int (us_fixed__content
                                                               a))

(define-fun bool__ref___projection ((a bool__ref)) Bool (bool__content a))

(define-fun real__ref___projection ((a real__ref)) Real (real__content a))

(define-fun us_private__ref___projection ((a us_private__ref)) us_private 
  (us_private__content a))

(declare-fun nth ((_ BitVec 64) Int) Bool)

(declare-fun lsr ((_ BitVec 64) Int) (_ BitVec 64))

(declare-fun asr ((_ BitVec 64) Int) (_ BitVec 64))

(declare-fun lsl ((_ BitVec 64) Int) (_ BitVec 64))

(define-fun abs1 ((x Int)) Int (ite (<= 0 x) x (- x)))

;; Abs_le
  (assert
  (forall ((x Int) (y Int)) (= (<= (abs1 x) y) (and (<= (- y) x) (<= x y)))))

;; Abs_pos
  (assert (forall ((x Int)) (<= 0 (abs1 x))))

(declare-fun rotate_right1 ((_ BitVec 64) Int) (_ BitVec 64))

(declare-fun rotate_left1 ((_ BitVec 64) Int) (_ BitVec 64))

(declare-fun pow2 (Int) Int)

(define-fun to_int1 ((x (_ BitVec 64))) Int (ite (bvsge x (_ bv0 64))
                                            (bv2int x)
                                            (- (- 18446744073709551616 (bv2int x)))))

(define-fun uint_in_range ((i Int)) Bool (and (<= 0 i)
                                         (<= i 18446744073709551615)))

(declare-fun nth_bv ((_ BitVec 64) (_ BitVec 64)) Bool)

(declare-fun eq_sub_bv ((_ BitVec 64) (_ BitVec 64) (_ BitVec 64)
  (_ BitVec 64)) Bool)

(define-fun eq_sub ((a (_ BitVec 64)) (b (_ BitVec 64)) (i Int)
  (n Int)) Bool (forall ((j Int))
                (=> (and (<= i j) (< j (+ i n))) (= (nth a j) (nth b j)))))

(declare-datatypes () ((t__ref (t__refqtmk (t__content (_ BitVec 64))))))
(declare-fun power ((_ BitVec 64) Int) (_ BitVec 64))

(define-fun bv_min ((x (_ BitVec 64))
  (y (_ BitVec 64))) (_ BitVec 64) (ite (bvule x y) x y))

(define-fun bv_max ((x (_ BitVec 64))
  (y (_ BitVec 64))) (_ BitVec 64) (ite (bvule x y) y x))

(define-fun min ((x Int) (y Int)) Int (ite (<= x y) x y))

(define-fun max ((x Int) (y Int)) Int (ite (<= x y) y x))

;; Min_r
  (assert (forall ((x Int) (y Int)) (=> (<= y x) (= (min x y) y))))

;; Max_l
  (assert (forall ((x Int) (y Int)) (=> (<= y x) (= (max x y) x))))

;; Min_comm
  (assert (forall ((x Int) (y Int)) (= (min x y) (min y x))))

;; Max_comm
  (assert (forall ((x Int) (y Int)) (= (max x y) (max y x))))

;; Min_assoc
  (assert
  (forall ((x Int) (y Int) (z Int)) (= (min (min x y) z) (min x (min y z)))))

;; Max_assoc
  (assert
  (forall ((x Int) (y Int) (z Int)) (= (max (max x y) z) (max x (max y z)))))

(declare-const field Int)

(declare-const attr__ATTRIBUTE_ADDRESS Int)

(declare-const attr__ATTRIBUTE_ADDRESS1 Int)

(declare-sort unsigned_64 0)

(declare-const attr__ATTRIBUTE_MODULUS (_ BitVec 64))

(declare-fun attr__ATTRIBUTE_IMAGE ((_ BitVec 64)) us_image)

(declare-fun attr__ATTRIBUTE_VALUE__pre_check (us_image) Bool)

(declare-fun attr__ATTRIBUTE_VALUE (us_image) (_ BitVec 64))

(declare-fun user_eq (unsigned_64 unsigned_64) Bool)

(declare-const dummy unsigned_64)

(declare-datatypes ()
((unsigned_64__ref (unsigned_64__refqtmk (unsigned_64__content unsigned_64)))))
(define-fun unsigned_64__ref_unsigned_64__content__projection ((a unsigned_64__ref)) unsigned_64 
  (unsigned_64__content a))

(declare-fun to_rep (unsigned_64) (_ BitVec 64))

(declare-fun of_rep ((_ BitVec 64)) unsigned_64)

;; inversion_axiom
  (assert
  (forall ((x unsigned_64))
  (! (= (of_rep (to_rep x)) x) :pattern ((to_rep x)) )))

;; range_axiom
  (assert true)

;; coerce_axiom
  (assert
  (forall ((x (_ BitVec 64)))
  (! (= (to_rep (of_rep x)) x) :pattern ((to_rep (of_rep x))) )))

(define-fun to_int2 ((x unsigned_64)) Int (bv2int (to_rep x)))

;; range_int_axiom
  (assert
  (forall ((x unsigned_64)) (! (uint_in_range
  (to_int2 x)) :pattern ((to_int2 x)) )))

(declare-datatypes ()
((map__ref (map__refqtmk (map__content (Array Int unsigned_64))))))
(declare-fun slide ((Array Int unsigned_64) Int Int) (Array Int unsigned_64))

;; slide_eq
  (assert
  (forall ((a (Array Int unsigned_64)))
  (forall ((first Int))
  (! (= (slide a first first) a) :pattern ((slide a first first)) ))))

;; slide_def
  (assert
  (forall ((a (Array Int unsigned_64)))
  (forall ((old_first Int))
  (forall ((new_first Int))
  (forall ((i Int))
  (! (= (select (slide a old_first new_first) i) (select a (- i (- new_first old_first)))) :pattern ((select 
  (slide a old_first new_first) i)) ))))))

(define-fun bool_eq ((a (Array Int unsigned_64)) (a__first Int) (a__last Int)
  (b (Array Int unsigned_64)) (b__first Int)
  (b__last Int)) Bool (ite (and
                           (ite (<= a__first a__last)
                           (and (<= b__first b__last)
                           (= (- a__last a__first) (- b__last b__first)))
                           (< b__last b__first))
                           (forall ((temp___idx_154 Int))
                           (=>
                           (and (<= a__first temp___idx_154)
                           (<= temp___idx_154 a__last))
                           (= (to_rep (select a temp___idx_154)) (to_rep
                                                                 (select b (+ (- b__first a__first) temp___idx_154)))))))
                      true false))

;; bool_eq_rev
  (assert
  (forall ((a (Array Int unsigned_64)) (b (Array Int unsigned_64)))
  (forall ((a__first Int) (a__last Int) (b__first Int) (b__last Int))
  (=> (= (bool_eq b b__first b__last a a__first a__last) true)
  (and
  (ite (<= a__first a__last)
  (and (<= b__first b__last) (= (- a__last a__first) (- b__last b__first)))
  (< b__last b__first))
  (forall ((temp___idx_154 Int))
  (=> (and (<= a__first temp___idx_154) (<= temp___idx_154 a__last))
  (= (to_rep (select a temp___idx_154)) (to_rep
                                        (select b (+ (- b__first a__first) temp___idx_154)))))))))))

(declare-const attr__ATTRIBUTE_ADDRESS2 Int)

(declare-sort field_type 0)

(declare-fun field_typeqtint (field_type) Int)

;; field_type'axiom
  (assert
  (forall ((i field_type))
  (and (<= 0 (field_typeqtint i)) (<= (field_typeqtint i) 4))))

(define-fun in_range ((x Int)) Bool (and (<= 0 x) (<= x 4)))

(declare-fun attr__ATTRIBUTE_IMAGE1 (Int) us_image)

(declare-fun attr__ATTRIBUTE_VALUE__pre_check1 (us_image) Bool)

(declare-fun attr__ATTRIBUTE_VALUE1 (us_image) Int)

(declare-fun user_eq1 (field_type field_type) Bool)

(declare-const dummy1 field_type)

(declare-datatypes ()
((field_type__ref (field_type__refqtmk (field_type__content field_type)))))
(define-fun field_type__ref_field_type__content__projection ((a field_type__ref)) field_type 
  (field_type__content a))

(define-fun dynamic_invariant ((temp___expr_159 Int)
  (temp___is_init_155 Bool) (temp___skip_constant_156 Bool)
  (temp___do_toplevel_157 Bool)
  (temp___do_typ_inv_158 Bool)) Bool (=>
                                     (or (= temp___is_init_155 true)
                                     (<= 0 4)) (in_range temp___expr_159)))

(define-fun dynamic_invariant1 ((temp___expr_168 (_ BitVec 64))
  (temp___is_init_164 Bool) (temp___skip_constant_165 Bool)
  (temp___do_toplevel_166 Bool) (temp___do_typ_inv_167 Bool)) Bool true)

(declare-const data (_ BitVec 64))

(declare-const value (Array Int unsigned_64))

;; Assume
  (assert (dynamic_invariant field true false true true))

;; Assume
  (assert (dynamic_invariant1 data false false true true))

(declare-const o (_ BitVec 64))

;; Ensures
  (assert (= (to_rep (select value field)) o))

(declare-const data1 (_ BitVec 64))

;; H
  (assert (= data1 o))

(assert
;; defqtvc
 ;; File "foo.ads", line 16, characters 0-0
  (not (= data1 (to_rep (select value field)))))
(check-sat)
